p cnf 210 1692
1 2 3 4 5 6 7 0
8 9 10 11 12 13 14 0
15 16 17 18 19 20 21 0
22 23 24 25 26 27 28 0
29 30 31 32 33 34 35 0
36 37 38 39 40 41 42 0
43 44 45 46 47 48 49 0
50 51 52 53 54 55 56 0
57 58 59 60 61 62 63 0
64 65 66 67 68 69 70 0
71 72 73 74 75 76 77 0
78 79 80 81 82 83 84 0
85 86 87 88 89 90 91 0
92 93 94 95 96 97 98 0
99 100 101 102 103 104 105 0
106 107 108 109 110 111 112 0
113 114 115 116 117 118 119 0
120 121 122 123 124 125 126 0
127 128 129 130 131 132 133 0
134 135 136 137 138 139 140 0
141 142 143 144 145 146 147 0
148 149 150 151 152 153 154 0
155 156 157 158 159 160 161 0
162 163 164 165 166 167 168 0
169 170 171 172 173 174 175 0
176 177 178 179 180 181 182 0
183 184 185 186 187 188 189 0
190 191 192 193 194 195 196 0
197 198 199 200 201 202 203 0
204 205 206 207 208 209 210 0
-1 -2 0
-1 -3 0
-1 -4 0
-1 -5 0
-1 -6 0
-1 -7 0
-2 -3 0
-2 -4 0
-2 -5 0
-2 -6 0
-2 -7 0
-3 -4 0
-3 -5 0
-3 -6 0
-3 -7 0
-4 -5 0
-4 -6 0
-4 -7 0
-5 -6 0
-5 -7 0
-6 -7 0
-8 -9 0
-8 -10 0
-8 -11 0
-8 -12 0
-8 -13 0
-8 -14 0
-9 -10 0
-9 -11 0
-9 -12 0
-9 -13 0
-9 -14 0
-10 -11 0
-10 -12 0
-10 -13 0
-10 -14 0
-11 -12 0
-11 -13 0
-11 -14 0
-12 -13 0
-12 -14 0
-13 -14 0
-15 -16 0
-15 -17 0
-15 -18 0
-15 -19 0
-15 -20 0
-15 -21 0
-16 -17 0
-16 -18 0
-16 -19 0
-16 -20 0
-16 -21 0
-17 -18 0
-17 -19 0
-17 -20 0
-17 -21 0
-18 -19 0
-18 -20 0
-18 -21 0
-19 -20 0
-19 -21 0
-20 -21 0
-22 -23 0
-22 -24 0
-22 -25 0
-22 -26 0
-22 -27 0
-22 -28 0
-23 -24 0
-23 -25 0
-23 -26 0
-23 -27 0
-23 -28 0
-24 -25 0
-24 -26 0
-24 -27 0
-24 -28 0
-25 -26 0
-25 -27 0
-25 -28 0
-26 -27 0
-26 -28 0
-27 -28 0
-29 -30 0
-29 -31 0
-29 -32 0
-29 -33 0
-29 -34 0
-29 -35 0
-30 -31 0
-30 -32 0
-30 -33 0
-30 -34 0
-30 -35 0
-31 -32 0
-31 -33 0
-31 -34 0
-31 -35 0
-32 -33 0
-32 -34 0
-32 -35 0
-33 -34 0
-33 -35 0
-34 -35 0
-36 -37 0
-36 -38 0
-36 -39 0
-36 -40 0
-36 -41 0
-36 -42 0
-37 -38 0
-37 -39 0
-37 -40 0
-37 -41 0
-37 -42 0
-38 -39 0
-38 -40 0
-38 -41 0
-38 -42 0
-39 -40 0
-39 -41 0
-39 -42 0
-40 -41 0
-40 -42 0
-41 -42 0
-43 -44 0
-43 -45 0
-43 -46 0
-43 -47 0
-43 -48 0
-43 -49 0
-44 -45 0
-44 -46 0
-44 -47 0
-44 -48 0
-44 -49 0
-45 -46 0
-45 -47 0
-45 -48 0
-45 -49 0
-46 -47 0
-46 -48 0
-46 -49 0
-47 -48 0
-47 -49 0
-48 -49 0
-50 -51 0
-50 -52 0
-50 -53 0
-50 -54 0
-50 -55 0
-50 -56 0
-51 -52 0
-51 -53 0
-51 -54 0
-51 -55 0
-51 -56 0
-52 -53 0
-52 -54 0
-52 -55 0
-52 -56 0
-53 -54 0
-53 -55 0
-53 -56 0
-54 -55 0
-54 -56 0
-55 -56 0
-57 -58 0
-57 -59 0
-57 -60 0
-57 -61 0
-57 -62 0
-57 -63 0
-58 -59 0
-58 -60 0
-58 -61 0
-58 -62 0
-58 -63 0
-59 -60 0
-59 -61 0
-59 -62 0
-59 -63 0
-60 -61 0
-60 -62 0
-60 -63 0
-61 -62 0
-61 -63 0
-62 -63 0
-64 -65 0
-64 -66 0
-64 -67 0
-64 -68 0
-64 -69 0
-64 -70 0
-65 -66 0
-65 -67 0
-65 -68 0
-65 -69 0
-65 -70 0
-66 -67 0
-66 -68 0
-66 -69 0
-66 -70 0
-67 -68 0
-67 -69 0
-67 -70 0
-68 -69 0
-68 -70 0
-69 -70 0
-71 -72 0
-71 -73 0
-71 -74 0
-71 -75 0
-71 -76 0
-71 -77 0
-72 -73 0
-72 -74 0
-72 -75 0
-72 -76 0
-72 -77 0
-73 -74 0
-73 -75 0
-73 -76 0
-73 -77 0
-74 -75 0
-74 -76 0
-74 -77 0
-75 -76 0
-75 -77 0
-76 -77 0
-78 -79 0
-78 -80 0
-78 -81 0
-78 -82 0
-78 -83 0
-78 -84 0
-79 -80 0
-79 -81 0
-79 -82 0
-79 -83 0
-79 -84 0
-80 -81 0
-80 -82 0
-80 -83 0
-80 -84 0
-81 -82 0
-81 -83 0
-81 -84 0
-82 -83 0
-82 -84 0
-83 -84 0
-85 -86 0
-85 -87 0
-85 -88 0
-85 -89 0
-85 -90 0
-85 -91 0
-86 -87 0
-86 -88 0
-86 -89 0
-86 -90 0
-86 -91 0
-87 -88 0
-87 -89 0
-87 -90 0
-87 -91 0
-88 -89 0
-88 -90 0
-88 -91 0
-89 -90 0
-89 -91 0
-90 -91 0
-92 -93 0
-92 -94 0
-92 -95 0
-92 -96 0
-92 -97 0
-92 -98 0
-93 -94 0
-93 -95 0
-93 -96 0
-93 -97 0
-93 -98 0
-94 -95 0
-94 -96 0
-94 -97 0
-94 -98 0
-95 -96 0
-95 -97 0
-95 -98 0
-96 -97 0
-96 -98 0
-97 -98 0
-99 -100 0
-99 -101 0
-99 -102 0
-99 -103 0
-99 -104 0
-99 -105 0
-100 -101 0
-100 -102 0
-100 -103 0
-100 -104 0
-100 -105 0
-101 -102 0
-101 -103 0
-101 -104 0
-101 -105 0
-102 -103 0
-102 -104 0
-102 -105 0
-103 -104 0
-103 -105 0
-104 -105 0
-106 -107 0
-106 -108 0
-106 -109 0
-106 -110 0
-106 -111 0
-106 -112 0
-107 -108 0
-107 -109 0
-107 -110 0
-107 -111 0
-107 -112 0
-108 -109 0
-108 -110 0
-108 -111 0
-108 -112 0
-109 -110 0
-109 -111 0
-109 -112 0
-110 -111 0
-110 -112 0
-111 -112 0
-113 -114 0
-113 -115 0
-113 -116 0
-113 -117 0
-113 -118 0
-113 -119 0
-114 -115 0
-114 -116 0
-114 -117 0
-114 -118 0
-114 -119 0
-115 -116 0
-115 -117 0
-115 -118 0
-115 -119 0
-116 -117 0
-116 -118 0
-116 -119 0
-117 -118 0
-117 -119 0
-118 -119 0
-120 -121 0
-120 -122 0
-120 -123 0
-120 -124 0
-120 -125 0
-120 -126 0
-121 -122 0
-121 -123 0
-121 -124 0
-121 -125 0
-121 -126 0
-122 -123 0
-122 -124 0
-122 -125 0
-122 -126 0
-123 -124 0
-123 -125 0
-123 -126 0
-124 -125 0
-124 -126 0
-125 -126 0
-127 -128 0
-127 -129 0
-127 -130 0
-127 -131 0
-127 -132 0
-127 -133 0
-128 -129 0
-128 -130 0
-128 -131 0
-128 -132 0
-128 -133 0
-129 -130 0
-129 -131 0
-129 -132 0
-129 -133 0
-130 -131 0
-130 -132 0
-130 -133 0
-131 -132 0
-131 -133 0
-132 -133 0
-134 -135 0
-134 -136 0
-134 -137 0
-134 -138 0
-134 -139 0
-134 -140 0
-135 -136 0
-135 -137 0
-135 -138 0
-135 -139 0
-135 -140 0
-136 -137 0
-136 -138 0
-136 -139 0
-136 -140 0
-137 -138 0
-137 -139 0
-137 -140 0
-138 -139 0
-138 -140 0
-139 -140 0
-141 -142 0
-141 -143 0
-141 -144 0
-141 -145 0
-141 -146 0
-141 -147 0
-142 -143 0
-142 -144 0
-142 -145 0
-142 -146 0
-142 -147 0
-143 -144 0
-143 -145 0
-143 -146 0
-143 -147 0
-144 -145 0
-144 -146 0
-144 -147 0
-145 -146 0
-145 -147 0
-146 -147 0
-148 -149 0
-148 -150 0
-148 -151 0
-148 -152 0
-148 -153 0
-148 -154 0
-149 -150 0
-149 -151 0
-149 -152 0
-149 -153 0
-149 -154 0
-150 -151 0
-150 -152 0
-150 -153 0
-150 -154 0
-151 -152 0
-151 -153 0
-151 -154 0
-152 -153 0
-152 -154 0
-153 -154 0
-155 -156 0
-155 -157 0
-155 -158 0
-155 -159 0
-155 -160 0
-155 -161 0
-156 -157 0
-156 -158 0
-156 -159 0
-156 -160 0
-156 -161 0
-157 -158 0
-157 -159 0
-157 -160 0
-157 -161 0
-158 -159 0
-158 -160 0
-158 -161 0
-159 -160 0
-159 -161 0
-160 -161 0
-162 -163 0
-162 -164 0
-162 -165 0
-162 -166 0
-162 -167 0
-162 -168 0
-163 -164 0
-163 -165 0
-163 -166 0
-163 -167 0
-163 -168 0
-164 -165 0
-164 -166 0
-164 -167 0
-164 -168 0
-165 -166 0
-165 -167 0
-165 -168 0
-166 -167 0
-166 -168 0
-167 -168 0
-169 -170 0
-169 -171 0
-169 -172 0
-169 -173 0
-169 -174 0
-169 -175 0
-170 -171 0
-170 -172 0
-170 -173 0
-170 -174 0
-170 -175 0
-171 -172 0
-171 -173 0
-171 -174 0
-171 -175 0
-172 -173 0
-172 -174 0
-172 -175 0
-173 -174 0
-173 -175 0
-174 -175 0
-176 -177 0
-176 -178 0
-176 -179 0
-176 -180 0
-176 -181 0
-176 -182 0
-177 -178 0
-177 -179 0
-177 -180 0
-177 -181 0
-177 -182 0
-178 -179 0
-178 -180 0
-178 -181 0
-178 -182 0
-179 -180 0
-179 -181 0
-179 -182 0
-180 -181 0
-180 -182 0
-181 -182 0
-183 -184 0
-183 -185 0
-183 -186 0
-183 -187 0
-183 -188 0
-183 -189 0
-184 -185 0
-184 -186 0
-184 -187 0
-184 -188 0
-184 -189 0
-185 -186 0
-185 -187 0
-185 -188 0
-185 -189 0
-186 -187 0
-186 -188 0
-186 -189 0
-187 -188 0
-187 -189 0
-188 -189 0
-190 -191 0
-190 -192 0
-190 -193 0
-190 -194 0
-190 -195 0
-190 -196 0
-191 -192 0
-191 -193 0
-191 -194 0
-191 -195 0
-191 -196 0
-192 -193 0
-192 -194 0
-192 -195 0
-192 -196 0
-193 -194 0
-193 -195 0
-193 -196 0
-194 -195 0
-194 -196 0
-195 -196 0
-197 -198 0
-197 -199 0
-197 -200 0
-197 -201 0
-197 -202 0
-197 -203 0
-198 -199 0
-198 -200 0
-198 -201 0
-198 -202 0
-198 -203 0
-199 -200 0
-199 -201 0
-199 -202 0
-199 -203 0
-200 -201 0
-200 -202 0
-200 -203 0
-201 -202 0
-201 -203 0
-202 -203 0
-204 -205 0
-204 -206 0
-204 -207 0
-204 -208 0
-204 -209 0
-204 -210 0
-205 -206 0
-205 -207 0
-205 -208 0
-205 -209 0
-205 -210 0
-206 -207 0
-206 -208 0
-206 -209 0
-206 -210 0
-207 -208 0
-207 -209 0
-207 -210 0
-208 -209 0
-208 -210 0
-209 -210 0
-4 -69 0
-4 -67 0
-3 -70 0
-4 -64 0
-2 -65 0
-6 -65 0
-1 -66 0
-7 -65 0
-4 -65 0
-3 -69 0
-2 -64 0
-6 -68 0
-5 -65 0
-5 -64 0
-2 -70 0
-1 -65 0
-3 -67 0
-5 -67 0
-3 -68 0
-1 -70 0
-5 -69 0
-2 -67 0
-7 -68 0
-7 -64 0
-3 -183 0
-3 -187 0
-6 -188 0
-7 -186 0
-4 -183 0
-4 -185 0
-4 -187 0
-1 -188 0
-1 -183 0
-5 -187 0
-2 -185 0
-7 -188 0
-7 -184 0
-1 -184 0
-1 -189 0
-5 -184 0
-4 -184 0
-4 -189 0
-2 -189 0
-5 -183 0
-2 -188 0
-1 -185 0
-6 -185 0
-7 -187 0
-13 -26 0
-14 -22 0
-8 -23 0
-12 -22 0
-8 -27 0
-14 -28 0
-12 -25 0
-14 -25 0
-10 -22 0
-14 -24 0
-9 -23 0
-13 -28 0
-8 -26 0
-14 -26 0
-9 -26 0
-11 -25 0
-11 -24 0
-10 -24 0
-11 -28 0
-8 -25 0
-10 -28 0
-10 -25 0
-13 -22 0
-11 -26 0
-14 -33 0
-8 -34 0
-14 -31 0
-13 -31 0
-11 -33 0
-12 -32 0
-14 -32 0
-8 -29 0
-14 -34 0
-11 -34 0
-13 -34 0
-11 -32 0
-9 -30 0
-10 -35 0
-12 -34 0
-12 -35 0
-8 -35 0
-10 -29 0
-10 -32 0
-9 -29 0
-13 -32 0
-9 -31 0
-11 -30 0
-12 -31 0
-11 -172 0
-14 -169 0
-11 -169 0
-10 -171 0
-8 -174 0
-8 -169 0
-12 -172 0
-12 -171 0
-13 -174 0
-14 -173 0
-12 -173 0
-14 -171 0
-9 -172 0
-9 -174 0
-9 -170 0
-8 -175 0
-9 -175 0
-14 -170 0
-8 -171 0
-10 -169 0
-14 -172 0
-11 -170 0
-12 -169 0
-8 -170 0
-19 -48 0
-20 -49 0
-15 -43 0
-18 -47 0
-20 -48 0
-17 -45 0
-21 -44 0
-15 -45 0
-16 -44 0
-19 -46 0
-16 -43 0
-19 -45 0
-21 -46 0
-21 -43 0
-17 -49 0
-20 -43 0
-17 -47 0
-20 -44 0
-18 -48 0
-18 -45 0
-16 -46 0
-18 -43 0
-20 -46 0
-19 -43 0
-17 -52 0
-18 -50 0
-17 -53 0
-20 -51 0
-21 -56 0
-18 -56 0
-20 -56 0
-15 -54 0
-16 -51 0
-17 -55 0
-17 -50 0
-19 -56 0
-15 -50 0
-21 -52 0
-20 -55 0
-19 -55 0
-20 -53 0
-21 -51 0
-21 -50 0
-16 -55 0
-15 -53 0
-20 -52 0
-15 -55 0
-18 -52 0
-15 -90 0
-21 -89 0
-16 -90 0
-16 -88 0
-18 -87 0
-16 -85 0
-21 -87 0
-15 -87 0
-21 -86 0
-20 -90 0
-18 -89 0
-19 -91 0
-15 -89 0
-20 -86 0
-18 -86 0
-17 -86 0
-15 -86 0
-19 -88 0
-19 -90 0
-18 -85 0
-16 -89 0
-21 -88 0
-15 -85 0
-21 -90 0
-15 -161 0
-17 -160 0
-16 -155 0
-21 -161 0
-19 -161 0
-16 -158 0
-19 -159 0
-16 -161 0
-15 -156 0
-21 -159 0
-20 -158 0
-19 -160 0
-16 -157 0
-18 -155 0
-16 -156 0
-21 -155 0
-19 -156 0
-19 -155 0
-17 -155 0
-17 -159 0
-17 -156 0
-17 -157 0
-18 -159 0
-20 -155 0
-15 -206 0
-17 -205 0
-18 -205 0
-17 -206 0
-20 -206 0
-19 -205 0
-19 -206 0
-17 -207 0
-18 -208 0
-15 -207 0
-21 -208 0
-20 -205 0
-17 -210 0
-15 -208 0
-20 -207 0
-18 -210 0
-20 -210 0
-20 -209 0
-19 -204 0
-15 -210 0
-16 -207 0
-16 -204 0
-20 -204 0
-16 -206 0
-27 -176 0
-27 -182 0
-24 -178 0
-24 -177 0
-27 -179 0
-25 -181 0
-26 -180 0
-28 -179 0
-23 -176 0
-25 -182 0
-26 -178 0
-27 -181 0
-22 -180 0
-25 -176 0
-23 -178 0
-24 -179 0
-23 -179 0
-23 -180 0
-23 -181 0
-28 -182 0
-22 -176 0
-24 -176 0
-22 -177 0
-25 -178 0
-26 -209 0
-24 -208 0
-22 -208 0
-22 -210 0
-23 -210 0
-28 -205 0
-24 -210 0
-27 -206 0
-23 -205 0
-27 -204 0
-22 -207 0
-22 -204 0
-28 -206 0
-25 -210 0
-25 -209 0
-23 -209 0
-24 -207 0
-22 -206 0
-24 -204 0
-24 -206 0
-27 -208 0
-27 -205 0
-27 -209 0
-23 -208 0
-37 -45 0
-40 -48 0
-41 -48 0
-41 -47 0
-41 -43 0
-39 -45 0
-36 -49 0
-36 -47 0
-38 -47 0
-39 -44 0
-36 -46 0
-36 -44 0
-40 -45 0
-41 -44 0
-38 -46 0
-36 -48 0
-37 -48 0
-38 -45 0
-42 -47 0
-42 -45 0
-39 -47 0
-38 -43 0
-39 -46 0
-41 -45 0
-41 -132 0
-40 -133 0
-37 -133 0
-36 -132 0
-42 -127 0
-39 -130 0
-40 -130 0
-38 -127 0
-38 -132 0
-38 -129 0
-40 -128 0
-41 -128 0
-42 -132 0
-42 -128 0
-36 -131 0
-38 -128 0
-37 -127 0
-40 -131 0
-41 -130 0
-40 -127 0
-36 -128 0
-39 -128 0
-37 -132 0
-39 -129 0
-38 -187 0
-42 -187 0
-37 -184 0
-37 -188 0
-38 -185 0
-42 -183 0
-37 -183 0
-36 -189 0
-41 -189 0
-41 -187 0
-38 -184 0
-40 -183 0
-41 -184 0
-40 -185 0
-36 -184 0
-41 -185 0
-36 -185 0
-39 -184 0
-41 -186 0
-37 -186 0
-42 -189 0
-41 -188 0
-42 -188 0
-38 -186 0
-40 -197 0
-36 -199 0
-41 -197 0
-38 -197 0
-42 -202 0
-41 -198 0
-39 -203 0
-37 -202 0
-39 -202 0
-38 -202 0
-41 -200 0
-38 -203 0
-38 -198 0
-41 -201 0
-37 -199 0
-38 -199 0
-40 -199 0
-40 -200 0
-38 -200 0
-38 -201 0
-37 -200 0
-41 -203 0
-39 -200 0
-42 -198 0
-43 -94 0
-46 -97 0
-44 -97 0
-49 -97 0
-43 -92 0
-44 -96 0
-48 -98 0
-46 -92 0
-47 -96 0
-49 -93 0
-45 -93 0
-47 -98 0
-49 -96 0
-48 -93 0
-44 -95 0
-49 -98 0
-45 -95 0
-49 -95 0
-44 -93 0
-46 -93 0
-44 -92 0
-43 -95 0
-43 -97 0
-47 -92 0
-47 -193 0
-43 -195 0
-43 -191 0
-45 -190 0
-48 -195 0
-43 -194 0
-43 -192 0
-45 -191 0
-44 -195 0
-46 -196 0
-45 -193 0
-47 -194 0
-49 -193 0
-48 -191 0
-46 -195 0
-47 -191 0
-44 -190 0
-47 -190 0
-47 -195 0
-45 -195 0
-49 -192 0
-49 -195 0
-48 -192 0
-48 -196 0
-48 -199 0
-45 -202 0
-46 -202 0
-49 -197 0
-45 -199 0
-44 -198 0
-48 -202 0
-48 -201 0
-47 -197 0
-44 -202 0
-44 -199 0
-45 -197 0
-43 -203 0
-46 -198 0
-44 -200 0
-47 -198 0
-43 -202 0
-45 -201 0
-48 -197 0
-47 -203 0
-46 -201 0
-49 -200 0
-47 -200 0
-44 -203 0
-55 -71 0
-51 -72 0
-54 -76 0
-54 -75 0
-51 -77 0
-52 -74 0
-54 -77 0
-53 -73 0
-56 -77 0
-50 -74 0
-51 -73 0
-55 -72 0
-50 -76 0
-55 -76 0
-50 -77 0
-53 -72 0
-53 -71 0
-52 -72 0
-52 -73 0
-50 -72 0
-55 -74 0
-56 -75 0
-53 -77 0
-55 -77 0
-51 -120 0
-55 -120 0
-51 -122 0
-54 -124 0
-51 -125 0
-50 -120 0
-54 -126 0
-55 -121 0
-50 -125 0
-55 -123 0
-50 -121 0
-54 -123 0
-54 -121 0
-54 -120 0
-53 -125 0
-56 -126 0
-51 -126 0
-55 -125 0
-53 -124 0
-52 -126 0
-52 -125 0
-53 -126 0
-50 -124 0
-51 -121 0
-52 -209 0
-54 -205 0
-51 -210 0
-53 -209 0
-51 -207 0
-52 -205 0
-51 -206 0
-51 -209 0
-56 -205 0
-53 -207 0
-52 -204 0
-54 -208 0
-54 -210 0
-55 -210 0
-54 -207 0
-55 -207 0
-50 -206 0
-52 -210 0
-53 -208 0
-51 -204 0
-52 -208 0
-51 -205 0
-54 -209 0
-53 -205 0
-63 -91 0
-57 -86 0
-58 -91 0
-58 -89 0
-63 -85 0
-57 -90 0
-60 -88 0
-60 -86 0
-62 -86 0
-59 -86 0
-60 -87 0
-57 -89 0
-59 -85 0
-57 -87 0
-63 -88 0
-59 -88 0
-62 -90 0
-57 -85 0
-62 -88 0
-58 -88 0
-61 -86 0
-60 -91 0
-58 -86 0
-63 -86 0
-63 -164 0
-59 -167 0
-58 -165 0
-60 -163 0
-57 -164 0
-61 -164 0
-62 -164 0
-62 -167 0
-61 -166 0
-62 -162 0
-60 -164 0
-59 -163 0
-61 -165 0
-60 -167 0
-60 -162 0
-58 -166 0
-62 -168 0
-58 -164 0
-63 -168 0
-62 -166 0
-63 -167 0
-61 -167 0
-57 -168 0
-61 -163 0
-68 -161 0
-68 -157 0
-70 -156 0
-65 -157 0
-69 -160 0
-66 -157 0
-67 -158 0
-70 -160 0
-65 -155 0
-64 -155 0
-66 -160 0
-68 -156 0
-64 -158 0
-65 -159 0
-68 -155 0
-67 -159 0
-64 -160 0
-66 -159 0
-67 -161 0
-64 -156 0
-64 -161 0
-66 -156 0
-70 -158 0
-68 -159 0
-64 -195 0
-69 -190 0
-65 -196 0
-68 -190 0
-70 -194 0
-69 -195 0
-70 -196 0
-65 -194 0
-70 -195 0
-67 -195 0
-69 -193 0
-70 -191 0
-66 -193 0
-70 -192 0
-65 -190 0
-66 -192 0
-68 -194 0
-69 -192 0
-65 -191 0
-70 -193 0
-68 -195 0
-69 -194 0
-67 -194 0
-68 -193 0
-72 -146 0
-73 -147 0
-71 -147 0
-73 -146 0
-71 -143 0
-74 -141 0
-71 -141 0
-71 -142 0
-76 -144 0
-74 -146 0
-72 -147 0
-73 -141 0
-72 -142 0
-73 -144 0
-76 -147 0
-75 -147 0
-76 -145 0
-72 -145 0
-75 -142 0
-74 -143 0
-75 -143 0
-74 -142 0
-77 -144 0
-76 -141 0
-74 -194 0
-71 -191 0
-72 -192 0
-73 -196 0
-72 -193 0
-74 -190 0
-71 -194 0
-77 -193 0
-75 -195 0
-76 -193 0
-71 -193 0
-71 -196 0
-73 -194 0
-76 -192 0
-74 -196 0
-76 -191 0
-73 -192 0
-73 -190 0
-74 -195 0
-71 -190 0
-75 -194 0
-75 -192 0
-76 -194 0
-77 -190 0
-82 -106 0
-78 -110 0
-81 -107 0
-82 -112 0
-80 -106 0
-83 -106 0
-81 -111 0
-80 -109 0
-81 -110 0
-80 -112 0
-83 -111 0
-78 -106 0
-80 -111 0
-79 -106 0
-84 -112 0
-84 -110 0
-82 -111 0
-78 -112 0
-81 -108 0
-79 -111 0
-83 -110 0
-82 -110 0
-82 -107 0
-84 -108 0
-87 -142 0
-87 -145 0
-91 -144 0
-90 -141 0
-85 -147 0
-85 -143 0
-89 -144 0
-88 -147 0
-86 -145 0
-86 -143 0
-85 -141 0
-90 -142 0
-87 -146 0
-85 -145 0
-86 -147 0
-90 -143 0
-89 -146 0
-86 -146 0
-87 -143 0
-85 -146 0
-87 -147 0
-88 -143 0
-88 -145 0
-88 -144 0
-96 -155 0
-92 -156 0
-96 -161 0
-93 -160 0
-98 -158 0
-95 -158 0
-96 -158 0
-97 -155 0
-97 -158 0
-93 -159 0
-98 -160 0
-98 -155 0
-93 -157 0
-93 -156 0
-94 -156 0
-94 -160 0
-97 -157 0
-92 -160 0
-95 -161 0
-92 -161 0
-97 -161 0
-98 -159 0
-98 -156 0
-92 -158 0
-92 -193 0
-96 -194 0
-92 -191 0
-92 -195 0
-95 -195 0
-95 -194 0
-96 -192 0
-95 -190 0
-94 -190 0
-95 -191 0
-96 -191 0
-92 -192 0
-98 -195 0
-93 -196 0
-94 -196 0
-98 -191 0
-97 -191 0
-96 -193 0
-94 -192 0
-98 -193 0
-96 -190 0
-98 -190 0
-93 -192 0
-94 -195 0
-105 -118 0
-105 -115 0
-99 -113 0
-101 -116 0
-104 -115 0
-101 -119 0
-102 -115 0
-105 -117 0
-102 -113 0
-104 -119 0
-105 -116 0
-100 -118 0
-101 -117 0
-105 -114 0
-101 -118 0
-101 -115 0
-100 -116 0
-99 -116 0
-100 -114 0
-99 -114 0
-104 -118 0
-102 -118 0
-103 -115 0
-104 -117 0
-99 -146 0
-105 -144 0
-105 -146 0
-100 -143 0
-100 -141 0
-101 -145 0
-104 -143 0
-102 -141 0
-105 -142 0
-104 -142 0
-100 -147 0
-103 -147 0
-102 -144 0
-101 -146 0
-104 -141 0
-99 -143 0
-105 -143 0
-104 -146 0
-102 -143 0
-103 -146 0
-105 -147 0
-100 -145 0
-100 -146 0
-100 -142 0
-102 -162 0
-102 -165 0
-101 -168 0
-104 -168 0
-103 -162 0
-103 -164 0
-99 -164 0
-105 -164 0
-100 -168 0
-105 -162 0
-102 -166 0
-99 -165 0
-100 -163 0
-105 -163 0
-104 -162 0
-105 -167 0
-102 -168 0
-100 -164 0
-104 -166 0
-103 -163 0
-102 -167 0
-100 -162 0
-99 -168 0
-101 -165 0
-126 -131 0
-122 -129 0
-125 -132 0
-123 -129 0
-121 -132 0
-125 -128 0
-120 -129 0
-126 -133 0
-122 -131 0
-124 -128 0
-121 -127 0
-125 -130 0
-124 -127 0
-121 -128 0
-126 -130 0
-123 -127 0
-120 -130 0
-125 -131 0
-122 -130 0
-125 -129 0
-123 -132 0
-121 -131 0
-123 -128 0
-122 -132 0
-122 -136 0
-122 -135 0
-125 -139 0
-122 -139 0
-120 -136 0
-125 -134 0
-121 -138 0
-126 -136 0
-126 -138 0
-124 -138 0
-123 -134 0
-122 -140 0
-125 -140 0
-124 -134 0
-124 -136 0
-122 -138 0
-123 -135 0
-122 -134 0
-124 -137 0
-123 -136 0
-123 -139 0
-120 -138 0
-121 -135 0
-120 -139 0
-120 -182 0
-123 -179 0
-124 -177 0
-120 -177 0
-123 -178 0
-125 -177 0
-126 -176 0
-126 -177 0
-121 -182 0
-121 -179 0
-121 -181 0
-121 -177 0
-121 -176 0
-126 -182 0
-123 -177 0
-121 -178 0
-122 -178 0
-120 -179 0
-120 -178 0
-123 -180 0
-120 -176 0
-124 -179 0
-125 -178 0
-123 -182 0
-133 -134 0
-132 -135 0
-130 -135 0
-127 -137 0
-130 -138 0
-129 -139 0
-132 -134 0
-128 -140 0
-131 -134 0
-130 -140 0
-129 -138 0
-128 -134 0
-132 -140 0
-131 -140 0
-131 -135 0
-132 -139 0
-132 -136 0
-132 -137 0
-127 -135 0
-131 -139 0
-127 -136 0
-129 -135 0
-127 -134 0
-128 -136 0
-129 -182 0
-132 -178 0
-131 -180 0
-127 -181 0
-128 -177 0
-128 -178 0
-129 -181 0
-133 -176 0
-130 -181 0
-128 -179 0
-129 -178 0
-130 -178 0
-133 -180 0
-132 -181 0
-131 -182 0
-127 -176 0
-132 -182 0
-130 -176 0
-132 -176 0
-127 -182 0
-128 -176 0
-130 -179 0
-131 -178 0
-128 -182 0
-144 -174 0
-142 -169 0
-145 -172 0
-141 -172 0
-145 -175 0
-141 -173 0
-144 -172 0
-142 -170 0
-147 -169 0
-146 -171 0
-146 -170 0
-143 -171 0
-143 -175 0
-142 -173 0
-141 -174 0
-143 -173 0
-143 -172 0
-147 -175 0
-147 -173 0
-143 -170 0
-144 -171 0
-145 -169 0
-145 -170 0
-146 -175 0
-148 -207 0
-151 -206 0
-149 -206 0
-150 -206 0
-153 -206 0
-151 -207 0
-154 -208 0
-152 -206 0
-154 -206 0
-154 -209 0
-151 -204 0
-154 -210 0
-148 -210 0
-152 -207 0
-152 -209 0
-148 -209 0
-153 -207 0
-154 -207 0
-153 -204 0
-150 -209 0
-150 -204 0
-148 -208 0
-150 -210 0
-148 -205 0
-188 -203 0
-189 -197 0
-187 -201 0
-183 -203 0
-186 -198 0
-185 -197 0
-187 -198 0
-184 -200 0
-186 -200 0
-187 -199 0
-187 -202 0
-183 -198 0
-189 -198 0
-189 -201 0
-186 -201 0
-188 -200 0
-184 -197 0
-184 -201 0
-184 -203 0
-187 -197 0
-186 -203 0
-183 -200 0
-185 -200 0
-185 -201 0
